p edge 100 550
e 1 2
e 1 9
e 1 34
e 1 37
e 1 49
e 1 50
e 1 65
e 1 84
e 1 88
e 1 89
e 1 95
e 2 8
e 2 13
e 2 16
e 2 29
e 2 31
e 2 32
e 2 33
e 2 37
e 2 39
e 2 40
e 2 58
e 2 60
e 2 65
e 2 74
e 2 75
e 3 7
e 3 14
e 3 23
e 3 46
e 3 49
e 3 60
e 3 68
e 3 72
e 3 74
e 3 79
e 3 90
e 3 94
e 3 95
e 4 5
e 4 12
e 4 49
e 4 52
e 4 61
e 4 65
e 4 75
e 4 100
e 5 7
e 5 12
e 5 19
e 5 23
e 5 27
e 5 33
e 5 62
e 5 75
e 5 76
e 5 84
e 5 85
e 5 92
e 5 97
e 6 8
e 6 13
e 6 27
e 6 60
e 6 73
e 6 76
e 6 88
e 7 14
e 7 27
e 7 34
e 7 35
e 7 50
e 7 53
e 7 56
e 7 68
e 7 79
e 7 83
e 7 84
e 7 93
e 7 100
e 8 16
e 8 17
e 8 18
e 8 34
e 8 35
e 8 47
e 8 72
e 8 76
e 8 84
e 8 85
e 8 88
e 9 23
e 9 38
e 9 41
e 9 50
e 9 57
e 9 59
e 9 60
e 9 63
e 9 67
e 9 73
e 9 90
e 9 98
e 10 19
e 10 23
e 10 29
e 10 30
e 10 43
e 10 51
e 10 80
e 10 82
e 11 31
e 11 34
e 11 36
e 11 60
e 11 69
e 11 89
e 11 91
e 11 99
e 12 38
e 12 52
e 12 56
e 12 65
e 12 71
e 12 75
e 12 77
e 12 78
e 12 80
e 12 98
e 13 15
e 13 47
e 13 50
e 13 53
e 13 69
e 13 72
e 13 73
e 13 78
e 13 80
e 13 86
e 13 99
e 14 30
e 14 37
e 14 44
e 14 45
e 14 46
e 14 65
e 15 21
e 15 22
e 15 33
e 15 71
e 15 82
e 15 86
e 15 92
e 16 18
e 16 21
e 16 28
e 16 33
e 16 38
e 16 58
e 16 75
e 16 77
e 16 81
e 16 94
e 17 24
e 17 41
e 17 46
e 17 58
e 17 61
e 17 85
e 17 90
e 18 22
e 18 24
e 18 41
e 18 53
e 18 59
e 18 62
e 18 84
e 19 29
e 19 38
e 19 44
e 19 64
e 19 70
e 19 73
e 19 76
e 19 84
e 20 21
e 20 39
e 20 47
e 20 50
e 20 60
e 20 63
e 20 73
e 20 74
e 20 88
e 20 90
e 21 42
e 21 48
e 21 67
e 21 68
e 21 74
e 21 75
e 22 33
e 22 53
e 22 54
e 22 67
e 22 81
e 22 93
e 23 25
e 23 28
e 23 30
e 23 91
e 24 31
e 24 38
e 24 44
e 24 46
e 24 54
e 24 60
e 24 81
e 24 86
e 25 27
e 25 34
e 25 35
e 25 56
e 25 61
e 25 76
e 25 78
e 25 94
e 26 36
e 26 38
e 26 68
e 26 70
e 26 71
e 26 74
e 26 78
e 26 81
e 26 91
e 26 94
e 27 35
e 27 48
e 27 51
e 27 52
e 27 54
e 27 76
e 27 88
e 27 99
e 28 53
e 28 62
e 28 67
e 28 68
e 28 69
e 28 77
e 28 90
e 28 95
e 29 30
e 29 43
e 29 69
e 29 78
e 29 96
e 29 99
e 30 41
e 30 43
e 30 52
e 30 61
e 30 77
e 30 87
e 30 93
e 31 46
e 31 47
e 31 49
e 31 52
e 31 72
e 31 73
e 31 85
e 31 86
e 32 39
e 32 52
e 32 78
e 32 82
e 32 84
e 32 86
e 33 52
e 33 58
e 33 88
e 33 90
e 34 49
e 34 52
e 34 60
e 34 91
e 35 40
e 35 48
e 35 56
e 35 64
e 35 80
e 36 37
e 36 42
e 36 55
e 36 69
e 36 79
e 37 53
e 37 62
e 37 65
e 37 77
e 37 82
e 37 85
e 37 88
e 37 96
e 38 42
e 38 53
e 38 55
e 38 61
e 38 65
e 38 67
e 38 77
e 38 79
e 38 85
e 38 86
e 38 90
e 38 98
e 38 99
e 39 49
e 39 55
e 39 69
e 39 76
e 39 84
e 40 57
e 40 60
e 40 61
e 40 63
e 40 70
e 40 72
e 40 90
e 40 91
e 40 94
e 41 44
e 41 58
e 41 59
e 41 60
e 41 63
e 41 72
e 41 78
e 41 79
e 41 91
e 41 95
e 41 97
e 42 51
e 42 70
e 42 78
e 42 83
e 42 84
e 42 90
e 43 46
e 43 67
e 43 70
e 43 72
e 43 77
e 43 87
e 43 95
e 43 98
e 43 99
e 44 58
e 44 61
e 44 66
e 44 67
e 44 83
e 44 92
e 44 97
e 44 99
e 44 100
e 45 50
e 45 58
e 45 66
e 45 69
e 45 72
e 45 73
e 45 74
e 45 92
e 46 82
e 46 85
e 46 87
e 46 94
e 46 99
e 47 63
e 47 87
e 47 89
e 48 49
e 48 53
e 48 54
e 48 60
e 48 62
e 48 68
e 48 79
e 48 82
e 48 90
e 49 57
e 49 71
e 49 91
e 50 63
e 50 65
e 50 66
e 50 75
e 50 76
e 50 87
e 50 92
e 50 94
e 50 97
e 50 99
e 51 56
e 51 67
e 51 71
e 51 78
e 52 70
e 52 74
e 52 81
e 52 82
e 52 86
e 52 87
e 52 95
e 52 100
e 53 71
e 53 72
e 53 81
e 53 84
e 53 87
e 54 70
e 54 74
e 54 77
e 54 83
e 54 91
e 54 95
e 55 65
e 55 70
e 56 68
e 56 75
e 56 78
e 56 91
e 57 59
e 57 63
e 57 68
e 57 85
e 57 86
e 57 94
e 58 67
e 58 72
e 58 78
e 59 60
e 59 73
e 59 75
e 59 89
e 59 93
e 59 94
e 60 65
e 60 74
e 60 86
e 60 94
e 61 70
e 61 98
e 62 63
e 62 64
e 62 67
e 62 68
e 62 70
e 62 74
e 62 78
e 62 88
e 62 96
e 63 64
e 63 71
e 63 73
e 63 78
e 63 79
e 63 89
e 63 93
e 64 66
e 64 69
e 64 99
e 65 66
e 65 74
e 65 93
e 65 96
e 65 97
e 66 92
e 67 68
e 67 74
e 67 75
e 67 76
e 67 91
e 67 93
e 67 94
e 67 100
e 68 77
e 68 79
e 68 92
e 68 100
e 69 85
e 69 96
e 70 72
e 70 98
e 71 75
e 71 78
e 71 82
e 71 88
e 71 96
e 72 73
e 72 81
e 72 85
e 72 86
e 72 90
e 73 91
e 73 93
e 73 94
e 74 86
e 74 88
e 74 91
e 74 93
e 75 81
e 75 83
e 75 85
e 75 96
e 75 99
e 76 78
e 76 92
e 76 98
e 77 80
e 77 82
e 77 85
e 77 95
e 78 85
e 79 83
e 79 88
e 79 91
e 79 93
e 79 96
e 81 91
e 81 97
e 84 85
e 84 87
e 84 90
e 84 98
e 86 87
e 86 90
e 86 91
e 86 96
e 86 97
e 89 95
e 89 99
e 90 98
e 90 99
e 92 99
e 94 96
e 95 96
